(declare-const a Real)
(declare-const b Real)
(declare-const c Real)
(assert (= (* a b c) 1))
(assert (> a 0))
(assert (> b 0))
(assert (> c 0))
(assert (not (<= (+ (pow (* (+ (pow a 6) (pow b 6)) (+ (* 24363151569 (pow a 2)) (* 24363151569 (pow b 2)))) (/ 1 2)) (* -56138840 (pow b 4)) (* -42966104 (pow a 4)) (* -113246208 (pow a (pow 3 -1)) (pow b (/ 11 3))) (* -56623104 (pow a (/ 10 3)) (pow b (/ 2 3))) (* 936522 (pow a 2) (pow b 2)) (* 64066940 b (pow a 3)) (* 203658620 a (pow b 3))) 0)))
(check-sat)
(get-model)
(exit)